decompositions/zmienne_wierzcholki/g_40_8_5.td
s td 8 5 40
b 1 11 13 18 20 25 
b 2 2 3 4 5 7 
b 3 10 24 28 33 39 
b 4 6 15 16 17 26 
b 5 21 22 23 30 32 
b 6 1 31 34 35 36 
b 7 8 9 12 19 27 
b 8 14 29 37 38 40 
1 2
1 3
2 4
3 5
4 6
5 7
6 8
