graphs/pace/raport/zmienne_wierzcholki/g_40_8_5.gr
p tw 40 80
8 9
8 12
8 19
8 27
9 12
9 19
9 27
12 19
12 27
19 27
6 15
6 16
6 17
6 26
15 16
15 17
15 26
16 17
16 26
17 26
14 29
14 37
14 38
14 40
29 37
29 38
29 40
37 38
37 40
38 40
10 24
10 28
10 33
10 39
24 28
24 33
24 39
28 33
28 39
33 39
11 13
11 18
11 20
11 25
13 18
13 20
13 25
18 20
18 25
20 25
21 22
21 23
21 30
21 32
22 23
22 30
22 32
23 30
23 32
30 32
2 3
2 4
2 5
2 7
3 4
3 5
3 7
4 5
4 7
5 7
1 31
1 34
1 35
1 36
31 34
31 35
31 36
34 35
34 36
35 36
